100
150
119
118
117
116
116
114
112
112
112
109
105
105
104
103
103
102
101
101
101
100
99
99
98
98
96
95
94
92
92
91
91
91
89
88
87
85
83
83
81
80
80
79
79
78
78
78
78
77
76
76
76
75
75
74
74
69
68
68
66
65
65
63
63
60
60
60
59
59
58
57
57
56
53
52
51
51
51
49
48
48
46
46
45
44
43
43
41
40
39
39
37
37
37
37
34
31
31
31
30
30
